% Logging successfully configured
%%%mzn-stat: initTime=0.023533127
%%%mzn-stat: objective=760
%%%mzn-stat: nodes=405
%%%mzn-stat: restarts=0
%%%mzn-stat: peakDepth=292
%%%mzn-stat: solveTime=0.037708964
%%%mzn-stat: variables=649
%%%mzn-stat: propagators=438
%%%mzn-stat: failures=100
%%%mzn-stat: propagations=5011
%%%mzn-stat: nogoods=100
%%%mzn-stat: numAtomicConstraintsPropagated=0
%%%mzn-stat: allDifferentNumber1PropagationsTotal=528
%%%mzn-stat: allDifferentNumber1PropagationsThatFoundConflict=3
%%%mzn-stat: allDifferentNumber1PropagationsThatPruned=325
%%%mzn-stat: allDifferentNumber1TotalValuesPruned=1369
%%%mzn-stat: allDifferentNumber1TotalHallSetSizeConflict=8
%%%mzn-stat: allDifferentNumber1NumberOfConflicts=3
%%%mzn-stat: allDifferentNumber1MaxHallSetSizeConflict=3
%%%mzn-stat: allDifferentNumber1TotalPruningHallSetSize=5671
%%%mzn-stat: allDifferentNumber1NumberOfPruningExplanations=1369
%%%mzn-stat: allDifferentNumber1MaxPruningHallSetSize=29
%%%mzn-stat: allDifferentNumber1TotalFixedEdgesAtConflict=113
%%%mzn-stat: allDifferentNumber1TotalVarsInvolvedInPruning=1180
%%%mzn-stat: allDifferentNumber1MaxValuesPrunedFromSingleVar=4
%%%mzn-stat: allDifferentNumber1TotalSccSizeAtPruning=2565
%%%mzn-stat: allDifferentNumber1NumberOfSccPruningCalls=325
%%%mzn-stat: circuitNumber2PropagationsThatFoundConflict=96
%%%mzn-stat: circuitNumber2TotalFixedEdgesAtConflict=3806
%%%mzn-stat: circuitNumber2NumberOfConflicts=96
%%%mzn-stat: circuitNumber2PropagationsThatPruned=60
%%%mzn-stat: circuitNumber2PropagationsTotal=327
%%%mzn-stat: AverageConflictSize=12.78
%%%mzn-stat: NumUnitNogoodsLearned=0
%%%mzn-stat: AverageLearnedNogoodLength=19.94
%%%mzn-stat: AverageBacktrackAmount=0
%%%mzn-stat: AverageLbd=14.77
%%%mzn-stat: 2AutonomousSearchNumBackupCalled=262
%%%mzn-stat: 2AutonomousSearchNumPredicatesRemoved=0
%%%mzn-stat: 2AutonomousSearchNumCalls=263
%%%mzn-stat: 2AutonomousSearchNumPredicatesAdded=1484
%%%mzn-stat: 2AutonomousSearchAverageSizeOfHeap=5.642585551330798
%%%mzn-stat: 2AutonomousSearchNumAssignedPredicatesEncountered=1484
%%%mzn-stat-end
maxleg = 760;
succ = array1d(1..50,[3, 12, 11, 8, 9, 16, 20, 1, 14, 22, 6, 15, 2, 18, 36, 17, 40, 19, 28, 27, 25, 26, 7, 38, 39, 23, 45, 31, 5, 29, 43, 37, 30, 33, 10, 49, 42, 44, 46, 48, 35, 50, 4, 21, 47, 32, 24, 13, 41, 34]);
% time elapsed: 4.20 s
----------
%%%mzn-stat: initTime=0.023533127
%%%mzn-stat: objective=679
%%%mzn-stat: nodes=954
%%%mzn-stat: restarts=0
%%%mzn-stat: peakDepth=307
%%%mzn-stat: solveTime=0.088188048
%%%mzn-stat: variables=649
%%%mzn-stat: propagators=438
%%%mzn-stat: failures=201
%%%mzn-stat: propagations=10722
%%%mzn-stat: nogoods=201
%%%mzn-stat: numAtomicConstraintsPropagated=0
%%%mzn-stat: allDifferentNumber1PropagationsTotal=1325
%%%mzn-stat: allDifferentNumber1PropagationsThatFoundConflict=5
%%%mzn-stat: allDifferentNumber1PropagationsThatPruned=817
%%%mzn-stat: allDifferentNumber1TotalValuesPruned=3587
%%%mzn-stat: allDifferentNumber1TotalHallSetSizeConflict=21
%%%mzn-stat: allDifferentNumber1NumberOfConflicts=5
%%%mzn-stat: allDifferentNumber1MaxHallSetSizeConflict=7
%%%mzn-stat: allDifferentNumber1TotalPruningHallSetSize=16809
%%%mzn-stat: allDifferentNumber1NumberOfPruningExplanations=3587
%%%mzn-stat: allDifferentNumber1MaxPruningHallSetSize=29
%%%mzn-stat: allDifferentNumber1TotalFixedEdgesAtConflict=172
%%%mzn-stat: allDifferentNumber1TotalVarsInvolvedInPruning=3081
%%%mzn-stat: allDifferentNumber1MaxValuesPrunedFromSingleVar=4
%%%mzn-stat: allDifferentNumber1TotalSccSizeAtPruning=7439
%%%mzn-stat: allDifferentNumber1NumberOfSccPruningCalls=817
%%%mzn-stat: circuitNumber2PropagationsThatFoundConflict=189
%%%mzn-stat: circuitNumber2TotalFixedEdgesAtConflict=6993
%%%mzn-stat: circuitNumber2NumberOfConflicts=189
%%%mzn-stat: circuitNumber2PropagationsThatPruned=136
%%%mzn-stat: circuitNumber2PropagationsTotal=817
%%%mzn-stat: AverageConflictSize=11.890547263681592
%%%mzn-stat: NumUnitNogoodsLearned=0
%%%mzn-stat: AverageLearnedNogoodLength=19.681592039800996
%%%mzn-stat: AverageBacktrackAmount=0
%%%mzn-stat: AverageLbd=13.298507462686567
%%%mzn-stat: 2AutonomousSearchNumBackupCalled=538
%%%mzn-stat: 2AutonomousSearchNumPredicatesRemoved=0
%%%mzn-stat: 2AutonomousSearchNumCalls=540
%%%mzn-stat: 2AutonomousSearchNumPredicatesAdded=3116
%%%mzn-stat: 2AutonomousSearchAverageSizeOfHeap=6.155555555555556
%%%mzn-stat: 2AutonomousSearchNumAssignedPredicatesEncountered=3324
%%%mzn-stat-end
maxleg = 679;
succ = array1d(1..50,[3, 12, 11, 8, 9, 16, 20, 21, 14, 1, 6, 15, 2, 18, 49, 17, 40, 19, 28, 27, 31, 10, 7, 4, 39, 23, 45, 36, 5, 29, 43, 37, 30, 33, 22, 35, 42, 24, 46, 48, 26, 50, 25, 38, 47, 32, 44, 13, 41, 34]);
% time elapsed: 4.23 s
----------
%%%mzn-stat: initTime=0.023533127
%%%mzn-stat: objective=360
%%%mzn-stat: nodes=6621
%%%mzn-stat: restarts=0
%%%mzn-stat: peakDepth=307
%%%mzn-stat: solveTime=0.831615482
%%%mzn-stat: variables=649
%%%mzn-stat: propagators=438
%%%mzn-stat: failures=1740
%%%mzn-stat: propagations=97864
%%%mzn-stat: nogoods=1740
%%%mzn-stat: numAtomicConstraintsPropagated=0
%%%mzn-stat: allDifferentNumber1PropagationsTotal=15326
%%%mzn-stat: allDifferentNumber1PropagationsThatFoundConflict=5
%%%mzn-stat: allDifferentNumber1PropagationsThatPruned=8850
%%%mzn-stat: allDifferentNumber1TotalValuesPruned=30599
%%%mzn-stat: allDifferentNumber1TotalHallSetSizeConflict=21
%%%mzn-stat: allDifferentNumber1NumberOfConflicts=5
%%%mzn-stat: allDifferentNumber1MaxHallSetSizeConflict=7
%%%mzn-stat: allDifferentNumber1TotalPruningHallSetSize=133830
%%%mzn-stat: allDifferentNumber1NumberOfPruningExplanations=30599
%%%mzn-stat: allDifferentNumber1MaxPruningHallSetSize=32
%%%mzn-stat: allDifferentNumber1TotalFixedEdgesAtConflict=172
%%%mzn-stat: allDifferentNumber1TotalVarsInvolvedInPruning=26678
%%%mzn-stat: allDifferentNumber1MaxValuesPrunedFromSingleVar=4
%%%mzn-stat: allDifferentNumber1TotalSccSizeAtPruning=66027
%%%mzn-stat: allDifferentNumber1NumberOfSccPruningCalls=8850
%%%mzn-stat: circuitNumber2PropagationsThatFoundConflict=1726
%%%mzn-stat: circuitNumber2TotalFixedEdgesAtConflict=63828
%%%mzn-stat: circuitNumber2NumberOfConflicts=1726
%%%mzn-stat: circuitNumber2PropagationsThatPruned=1092
%%%mzn-stat: circuitNumber2PropagationsTotal=9274
%%%mzn-stat: AverageConflictSize=17.960919540229884
%%%mzn-stat: NumUnitNogoodsLearned=0
%%%mzn-stat: AverageLearnedNogoodLength=19.054597701149426
%%%mzn-stat: AverageBacktrackAmount=0
%%%mzn-stat: AverageLbd=12.386781609195403
%%%mzn-stat: 2AutonomousSearchNumBackupCalled=792
%%%mzn-stat: 2AutonomousSearchNumPredicatesRemoved=0
%%%mzn-stat: 2AutonomousSearchNumCalls=795
%%%mzn-stat: 2AutonomousSearchNumPredicatesAdded=4933
%%%mzn-stat: 2AutonomousSearchAverageSizeOfHeap=7.210062893081761
%%%mzn-stat: 2AutonomousSearchNumAssignedPredicatesEncountered=5732
%%%mzn-stat-end
maxleg = 360;
succ = array1d(1..50,[3, 12, 11, 8, 9, 16, 20, 21, 14, 1, 13, 36, 2, 18, 49, 17, 48, 19, 29, 27, 25, 10, 7, 4, 43, 23, 45, 39, 30, 33, 5, 6, 34, 50, 26, 35, 32, 24, 42, 15, 22, 46, 31, 38, 47, 37, 44, 40, 41, 28]);
% time elapsed: 4.98 s
----------
%%%mzn-stat: initTime=0.023533127
%%%mzn-stat: objective=325
%%%mzn-stat: nodes=6910
%%%mzn-stat: restarts=0
%%%mzn-stat: peakDepth=307
%%%mzn-stat: solveTime=0.837892845
%%%mzn-stat: variables=649
%%%mzn-stat: propagators=438
%%%mzn-stat: failures=1749
%%%mzn-stat: propagations=98944
%%%mzn-stat: nogoods=1749
%%%mzn-stat: numAtomicConstraintsPropagated=0
%%%mzn-stat: allDifferentNumber1PropagationsTotal=15426
%%%mzn-stat: allDifferentNumber1PropagationsThatFoundConflict=5
%%%mzn-stat: allDifferentNumber1PropagationsThatPruned=8905
%%%mzn-stat: allDifferentNumber1TotalValuesPruned=30884
%%%mzn-stat: allDifferentNumber1TotalHallSetSizeConflict=21
%%%mzn-stat: allDifferentNumber1NumberOfConflicts=5
%%%mzn-stat: allDifferentNumber1MaxHallSetSizeConflict=7
%%%mzn-stat: allDifferentNumber1TotalPruningHallSetSize=135376
%%%mzn-stat: allDifferentNumber1NumberOfPruningExplanations=30884
%%%mzn-stat: allDifferentNumber1MaxPruningHallSetSize=34
%%%mzn-stat: allDifferentNumber1TotalFixedEdgesAtConflict=172
%%%mzn-stat: allDifferentNumber1TotalVarsInvolvedInPruning=26928
%%%mzn-stat: allDifferentNumber1MaxValuesPrunedFromSingleVar=4
%%%mzn-stat: allDifferentNumber1TotalSccSizeAtPruning=66494
%%%mzn-stat: allDifferentNumber1NumberOfSccPruningCalls=8905
%%%mzn-stat: circuitNumber2PropagationsThatFoundConflict=1735
%%%mzn-stat: circuitNumber2TotalFixedEdgesAtConflict=64016
%%%mzn-stat: circuitNumber2NumberOfConflicts=1735
%%%mzn-stat: circuitNumber2PropagationsThatPruned=1092
%%%mzn-stat: circuitNumber2PropagationsTotal=9330
%%%mzn-stat: AverageConflictSize=17.89594053744997
%%%mzn-stat: NumUnitNogoodsLearned=0
%%%mzn-stat: AverageLearnedNogoodLength=19.021154945683246
%%%mzn-stat: AverageBacktrackAmount=0
%%%mzn-stat: AverageLbd=12.355060034305318
%%%mzn-stat: 2AutonomousSearchNumBackupCalled=1037
%%%mzn-stat: 2AutonomousSearchNumPredicatesRemoved=0
%%%mzn-stat: 2AutonomousSearchNumCalls=1041
%%%mzn-stat: 2AutonomousSearchNumPredicatesAdded=5297
%%%mzn-stat: 2AutonomousSearchAverageSizeOfHeap=7.843419788664746
%%%mzn-stat: 2AutonomousSearchNumAssignedPredicatesEncountered=8165
%%%mzn-stat-end
maxleg = 325;
succ = array1d(1..50,[3, 12, 26, 8, 9, 11, 20, 21, 14, 1, 13, 15, 16, 18, 36, 17, 48, 19, 29, 27, 25, 10, 7, 4, 43, 23, 45, 39, 30, 33, 5, 6, 34, 50, 22, 49, 32, 24, 42, 2, 35, 46, 31, 38, 47, 37, 44, 40, 41, 28]);
% time elapsed: 4.99 s
----------
%%%mzn-stat: initTime=0.023533127
%%%mzn-stat: objective=305
%%%mzn-stat: nodes=7340
%%%mzn-stat: restarts=0
%%%mzn-stat: peakDepth=307
%%%mzn-stat: solveTime=0.877839371
%%%mzn-stat: variables=649
%%%mzn-stat: propagators=438
%%%mzn-stat: failures=1818
%%%mzn-stat: propagations=103184
%%%mzn-stat: nogoods=1818
%%%mzn-stat: numAtomicConstraintsPropagated=0
%%%mzn-stat: allDifferentNumber1PropagationsTotal=15942
%%%mzn-stat: allDifferentNumber1PropagationsThatFoundConflict=6
%%%mzn-stat: allDifferentNumber1PropagationsThatPruned=9227
%%%mzn-stat: allDifferentNumber1TotalValuesPruned=32714
%%%mzn-stat: allDifferentNumber1TotalHallSetSizeConflict=23
%%%mzn-stat: allDifferentNumber1NumberOfConflicts=6
%%%mzn-stat: allDifferentNumber1MaxHallSetSizeConflict=7
%%%mzn-stat: allDifferentNumber1TotalPruningHallSetSize=147362
%%%mzn-stat: allDifferentNumber1NumberOfPruningExplanations=32714
%%%mzn-stat: allDifferentNumber1MaxPruningHallSetSize=34
%%%mzn-stat: allDifferentNumber1TotalFixedEdgesAtConflict=193
%%%mzn-stat: allDifferentNumber1TotalVarsInvolvedInPruning=28503
%%%mzn-stat: allDifferentNumber1MaxValuesPrunedFromSingleVar=4
%%%mzn-stat: allDifferentNumber1TotalSccSizeAtPruning=70208
%%%mzn-stat: allDifferentNumber1NumberOfSccPruningCalls=9227
%%%mzn-stat: circuitNumber2PropagationsThatFoundConflict=1803
%%%mzn-stat: circuitNumber2TotalFixedEdgesAtConflict=65909
%%%mzn-stat: circuitNumber2NumberOfConflicts=1803
%%%mzn-stat: circuitNumber2PropagationsThatPruned=1130
%%%mzn-stat: circuitNumber2PropagationsTotal=9648
%%%mzn-stat: AverageConflictSize=17.596809680968097
%%%mzn-stat: NumUnitNogoodsLearned=0
%%%mzn-stat: AverageLearnedNogoodLength=19.482948294829484
%%%mzn-stat: AverageBacktrackAmount=0
%%%mzn-stat: AverageLbd=12.382288228822881
%%%mzn-stat: 2AutonomousSearchNumBackupCalled=1288
%%%mzn-stat: 2AutonomousSearchNumPredicatesRemoved=0
%%%mzn-stat: 2AutonomousSearchNumCalls=1293
%%%mzn-stat: 2AutonomousSearchNumPredicatesAdded=6540
%%%mzn-stat: 2AutonomousSearchAverageSizeOfHeap=8.211910286156225
%%%mzn-stat: 2AutonomousSearchNumAssignedPredicatesEncountered=10618
%%%mzn-stat-end
maxleg = 305;
succ = array1d(1..50,[3, 12, 26, 8, 9, 11, 20, 21, 14, 22, 13, 1, 16, 18, 36, 17, 48, 19, 29, 27, 25, 41, 7, 4, 43, 23, 45, 39, 30, 33, 5, 6, 34, 50, 10, 35, 32, 24, 42, 15, 49, 46, 31, 38, 47, 37, 44, 40, 2, 28]);
% time elapsed: 5.03 s
----------
%%%mzn-stat: initTime=0.023533127
%%%mzn-stat: objective=287
%%%mzn-stat: nodes=7617
%%%mzn-stat: restarts=0
%%%mzn-stat: peakDepth=307
%%%mzn-stat: solveTime=0.881892923
%%%mzn-stat: variables=649
%%%mzn-stat: propagators=438
%%%mzn-stat: failures=1819
%%%mzn-stat: propagations=104151
%%%mzn-stat: nogoods=1819
%%%mzn-stat: numAtomicConstraintsPropagated=0
%%%mzn-stat: allDifferentNumber1PropagationsTotal=16018
%%%mzn-stat: allDifferentNumber1PropagationsThatFoundConflict=6
%%%mzn-stat: allDifferentNumber1PropagationsThatPruned=9268
%%%mzn-stat: allDifferentNumber1TotalValuesPruned=32894
%%%mzn-stat: allDifferentNumber1TotalHallSetSizeConflict=23
%%%mzn-stat: allDifferentNumber1NumberOfConflicts=6
%%%mzn-stat: allDifferentNumber1MaxHallSetSizeConflict=7
%%%mzn-stat: allDifferentNumber1TotalPruningHallSetSize=147922
%%%mzn-stat: allDifferentNumber1NumberOfPruningExplanations=32894
%%%mzn-stat: allDifferentNumber1MaxPruningHallSetSize=34
%%%mzn-stat: allDifferentNumber1TotalFixedEdgesAtConflict=193
%%%mzn-stat: allDifferentNumber1TotalVarsInvolvedInPruning=28665
%%%mzn-stat: allDifferentNumber1MaxValuesPrunedFromSingleVar=4
%%%mzn-stat: allDifferentNumber1TotalSccSizeAtPruning=70374
%%%mzn-stat: allDifferentNumber1NumberOfSccPruningCalls=9268
%%%mzn-stat: circuitNumber2PropagationsThatFoundConflict=1804
%%%mzn-stat: circuitNumber2TotalFixedEdgesAtConflict=65946
%%%mzn-stat: circuitNumber2NumberOfConflicts=1804
%%%mzn-stat: circuitNumber2PropagationsThatPruned=1134
%%%mzn-stat: circuitNumber2PropagationsTotal=9693
%%%mzn-stat: AverageConflictSize=17.58823529411765
%%%mzn-stat: NumUnitNogoodsLearned=0
%%%mzn-stat: AverageLearnedNogoodLength=19.476085761407365
%%%mzn-stat: AverageBacktrackAmount=0
%%%mzn-stat: AverageLbd=12.37768004398021
%%%mzn-stat: 2AutonomousSearchNumBackupCalled=1530
%%%mzn-stat: 2AutonomousSearchNumPredicatesRemoved=0
%%%mzn-stat: 2AutonomousSearchNumCalls=1536
%%%mzn-stat: 2AutonomousSearchNumPredicatesAdded=6610
%%%mzn-stat: 2AutonomousSearchAverageSizeOfHeap=8.509765625
%%%mzn-stat: 2AutonomousSearchNumAssignedPredicatesEncountered=13071
%%%mzn-stat-end
maxleg = 287;
succ = array1d(1..50,[3, 12, 26, 8, 9, 11, 20, 21, 14, 22, 13, 1, 16, 18, 36, 17, 48, 19, 29, 47, 25, 41, 27, 4, 43, 23, 45, 39, 30, 33, 5, 6, 34, 50, 10, 35, 32, 24, 42, 15, 49, 46, 31, 38, 7, 37, 44, 40, 2, 28]);
% time elapsed: 5.04 s
----------
%%%mzn-stat: initTime=0.023533127
%%%mzn-stat: objective=284
%%%mzn-stat: nodes=7886
%%%mzn-stat: restarts=0
%%%mzn-stat: peakDepth=307
%%%mzn-stat: solveTime=0.884810154
%%%mzn-stat: variables=649
%%%mzn-stat: propagators=438
%%%mzn-stat: failures=1819
%%%mzn-stat: propagations=104990
%%%mzn-stat: nogoods=1819
%%%mzn-stat: numAtomicConstraintsPropagated=0
%%%mzn-stat: allDifferentNumber1PropagationsTotal=16077
%%%mzn-stat: allDifferentNumber1PropagationsThatFoundConflict=6
%%%mzn-stat: allDifferentNumber1PropagationsThatPruned=9299
%%%mzn-stat: allDifferentNumber1TotalValuesPruned=33028
%%%mzn-stat: allDifferentNumber1TotalHallSetSizeConflict=23
%%%mzn-stat: allDifferentNumber1NumberOfConflicts=6
%%%mzn-stat: allDifferentNumber1MaxHallSetSizeConflict=7
%%%mzn-stat: allDifferentNumber1TotalPruningHallSetSize=148360
%%%mzn-stat: allDifferentNumber1NumberOfPruningExplanations=33028
%%%mzn-stat: allDifferentNumber1MaxPruningHallSetSize=34
%%%mzn-stat: allDifferentNumber1TotalFixedEdgesAtConflict=193
%%%mzn-stat: allDifferentNumber1TotalVarsInvolvedInPruning=28788
%%%mzn-stat: allDifferentNumber1MaxValuesPrunedFromSingleVar=4
%%%mzn-stat: allDifferentNumber1TotalSccSizeAtPruning=70487
%%%mzn-stat: allDifferentNumber1NumberOfSccPruningCalls=9299
%%%mzn-stat: circuitNumber2PropagationsThatFoundConflict=1804
%%%mzn-stat: circuitNumber2TotalFixedEdgesAtConflict=65946
%%%mzn-stat: circuitNumber2NumberOfConflicts=1804
%%%mzn-stat: circuitNumber2PropagationsThatPruned=1136
%%%mzn-stat: circuitNumber2PropagationsTotal=9726
%%%mzn-stat: AverageConflictSize=17.58823529411765
%%%mzn-stat: NumUnitNogoodsLearned=0
%%%mzn-stat: AverageLearnedNogoodLength=19.476085761407365
%%%mzn-stat: AverageBacktrackAmount=0
%%%mzn-stat: AverageLbd=12.37768004398021
%%%mzn-stat: 2AutonomousSearchNumBackupCalled=1771
%%%mzn-stat: 2AutonomousSearchNumPredicatesRemoved=0
%%%mzn-stat: 2AutonomousSearchNumCalls=1778
%%%mzn-stat: 2AutonomousSearchNumPredicatesAdded=6610
%%%mzn-stat: 2AutonomousSearchAverageSizeOfHeap=8.731158605174354
%%%mzn-stat: 2AutonomousSearchNumAssignedPredicatesEncountered=15524
%%%mzn-stat-end
maxleg = 284;
succ = array1d(1..50,[3, 12, 26, 8, 9, 11, 20, 21, 14, 22, 13, 1, 16, 18, 36, 17, 48, 19, 29, 47, 25, 41, 27, 38, 43, 23, 45, 39, 30, 33, 5, 6, 34, 50, 10, 35, 32, 4, 42, 15, 49, 46, 31, 24, 7, 37, 44, 40, 2, 28]);
% time elapsed: 5.04 s
----------
==========
% time elapsed: 45.65 s
%%%mzn-stat: initTime=0.023533127
%%%mzn-stat: objective=284
%%%mzn-stat: nodes=238807
%%%mzn-stat: restarts=0
%%%mzn-stat: peakDepth=307
%%%mzn-stat: solveTime=41.497480253
%%%mzn-stat: variables=649
%%%mzn-stat: propagators=438
%%%mzn-stat: failures=75795
%%%mzn-stat: propagations=4570685
%%%mzn-stat: nogoods=75795
%%%mzn-stat: numAtomicConstraintsPropagated=0
%%%mzn-stat: allDifferentNumber1PropagationsTotal=642373
%%%mzn-stat: allDifferentNumber1PropagationsThatFoundConflict=1725
%%%mzn-stat: allDifferentNumber1PropagationsThatPruned=371260
%%%mzn-stat: allDifferentNumber1TotalValuesPruned=1434452
%%%mzn-stat: allDifferentNumber1TotalHallSetSizeConflict=10895
%%%mzn-stat: allDifferentNumber1NumberOfConflicts=1725
%%%mzn-stat: allDifferentNumber1MaxHallSetSizeConflict=14
%%%mzn-stat: allDifferentNumber1TotalPruningHallSetSize=4017267
%%%mzn-stat: allDifferentNumber1NumberOfPruningExplanations=1434452
%%%mzn-stat: allDifferentNumber1MaxPruningHallSetSize=34
%%%mzn-stat: allDifferentNumber1TotalFixedEdgesAtConflict=28788
%%%mzn-stat: allDifferentNumber1TotalVarsInvolvedInPruning=1192725
%%%mzn-stat: allDifferentNumber1MaxValuesPrunedFromSingleVar=5
%%%mzn-stat: allDifferentNumber1TotalSccSizeAtPruning=2004150
%%%mzn-stat: allDifferentNumber1NumberOfSccPruningCalls=371260
%%%mzn-stat: circuitNumber2PropagationsThatFoundConflict=71695
%%%mzn-stat: circuitNumber2TotalFixedEdgesAtConflict=2324079
%%%mzn-stat: circuitNumber2NumberOfConflicts=71695
%%%mzn-stat: circuitNumber2PropagationsThatPruned=36551
%%%mzn-stat: circuitNumber2PropagationsTotal=397664
%%%mzn-stat: AverageConflictSize=16.9180288937265
%%%mzn-stat: NumUnitNogoodsLearned=1
%%%mzn-stat: AverageLearnedNogoodLength=15.22923675704202
%%%mzn-stat: AverageBacktrackAmount=0
%%%mzn-stat: AverageLbd=8.141341777162081
%%%mzn-stat: 2AutonomousSearchNumBackupCalled=1771
%%%mzn-stat: 2AutonomousSearchNumPredicatesRemoved=0
%%%mzn-stat: 2AutonomousSearchNumCalls=1778
%%%mzn-stat: 2AutonomousSearchNumPredicatesAdded=9663
%%%mzn-stat: 2AutonomousSearchAverageSizeOfHeap=8.731158605174354
%%%mzn-stat: 2AutonomousSearchNumAssignedPredicatesEncountered=15524
%%%mzn-stat-end
